\ Model assignment
\ LP format - for model browsing. Use MPS format to capture full model detail.
Minimize
 
Subject To
 (18)[1]: 5 x[1,1] + 5 x[2,1] + 5 x[3,1] + 5 x[4,1] + 5 x[5,1] + 5 x[6,1]
   + 5 x[7,1] + 5 x[8,1] + 5 x[9,1] + 5 x[10,1] + 5 x[11,1] + 5 x[12,1]
   + 5 x[13,1] + 5 x[14,1] + 5 x[15,1] + 5 x[16,1] + 5 x[17,1] + 5 x[18,1]
   + 5 x[19,1] + 5 x[20,1] + 5 x[21,1] + 5 x[22,1] + 5 x[23,1] + 5 x[24,1]
   >= 30
 (18)[2]: 5 x[1,2] + 5 x[2,2] + 5 x[3,2] + 5 x[4,2] + 5 x[5,2] + 5 x[6,2]
   + 5 x[7,2] + 5 x[8,2] + 5 x[9,2] + 5 x[10,2] + 5 x[11,2] + 5 x[12,2]
   + 5 x[13,2] + 5 x[14,2] + 5 x[15,2] + 5 x[16,2] + 5 x[17,2] + 5 x[18,2]
   + 5 x[19,2] + 5 x[20,2] + 5 x[21,2] + 5 x[22,2] + 5 x[23,2] + 5 x[24,2]
   >= 30
 (18)[3]: 5 x[1,3] + 5 x[2,3] + 5 x[3,3] + 5 x[4,3] + 5 x[5,3] + 5 x[6,3]
   + 5 x[7,3] + 5 x[8,3] + 5 x[9,3] + 5 x[10,3] + 5 x[11,3] + 5 x[12,3]
   + 5 x[13,3] + 5 x[14,3] + 5 x[15,3] + 5 x[16,3] + 5 x[17,3] + 5 x[18,3]
   + 5 x[19,3] + 5 x[20,3] + 5 x[21,3] + 5 x[22,3] + 5 x[23,3] + 5 x[24,3]
   >= 30
 (18)[4]: 5 x[1,4] + 5 x[2,4] + 5 x[3,4] + 5 x[4,4] + 5 x[5,4] + 5 x[6,4]
   + 5 x[7,4] + 5 x[8,4] + 5 x[9,4] + 5 x[10,4] + 5 x[11,4] + 5 x[12,4]
   + 5 x[13,4] + 5 x[14,4] + 5 x[15,4] + 5 x[16,4] + 5 x[17,4] + 5 x[18,4]
   + 5 x[19,4] + 5 x[20,4] + 5 x[21,4] + 5 x[22,4] + 5 x[23,4] + 5 x[24,4]
   >= 30
 (19)[1]: x[1,1] + x[1,2] + x[1,3] + x[1,4] = 1
 (19)[2]: x[2,1] + x[2,2] + x[2,3] + x[2,4] = 1
 (19)[3]: x[3,1] + x[3,2] + x[3,3] + x[3,4] = 1
 (19)[4]: x[4,1] + x[4,2] + x[4,3] + x[4,4] = 1
 (19)[5]: x[5,1] + x[5,2] + x[5,3] + x[5,4] = 1
 (19)[6]: x[6,1] + x[6,2] + x[6,3] + x[6,4] = 1
 (19)[7]: x[7,1] + x[7,2] + x[7,3] + x[7,4] = 1
 (19)[8]: x[8,1] + x[8,2] + x[8,3] + x[8,4] = 1
 (19)[9]: x[9,1] + x[9,2] + x[9,3] + x[9,4] = 1
 (19)[10]: x[10,1] + x[10,2] + x[10,3] + x[10,4] = 1
 (19)[11]: x[11,1] + x[11,2] + x[11,3] + x[11,4] = 1
 (19)[12]: x[12,1] + x[12,2] + x[12,3] + x[12,4] = 1
 (19)[13]: x[13,1] + x[13,2] + x[13,3] + x[13,4] = 1
 (19)[14]: x[14,1] + x[14,2] + x[14,3] + x[14,4] = 1
 (19)[15]: x[15,1] + x[15,2] + x[15,3] + x[15,4] = 1
 (19)[16]: x[16,1] + x[16,2] + x[16,3] + x[16,4] = 1
 (19)[17]: x[17,1] + x[17,2] + x[17,3] + x[17,4] = 1
 (19)[18]: x[18,1] + x[18,2] + x[18,3] + x[18,4] = 1
 (19)[19]: x[19,1] + x[19,2] + x[19,3] + x[19,4] = 1
 (19)[20]: x[20,1] + x[20,2] + x[20,3] + x[20,4] = 1
 (19)[21]: x[21,1] + x[21,2] + x[21,3] + x[21,4] = 1
 (19)[22]: x[22,1] + x[22,2] + x[22,3] + x[22,4] = 1
 (19)[23]: x[23,1] + x[23,2] + x[23,3] + x[23,4] = 1
 (19)[24]: x[24,1] + x[24,2] + x[24,3] + x[24,4] = 1
 (20)[18,23]: - 3 x[18,1] - 2 x[18,2] - 2 x[18,3] - 5 x[18,4] + 3 x[23,1]
   + 2 x[23,2] + 2 x[23,3] + 5 x[23,4] + 5 a[18,23] <= 5
 (20)[3,4]: - 3 x[3,1] - 2 x[3,2] - 2 x[3,3] - 5 x[3,4] + 3 x[4,1]
   + 2 x[4,2] + 2 x[4,3] + 5 x[4,4] + 5 a[3,4] <= 5
 (20)[4,9]: - 3 x[4,1] - 2 x[4,2] - 2 x[4,3] - 5 x[4,4] + 3 x[9,1]
   + 2 x[9,2] + 2 x[9,3] + 5 x[9,4] + 5 a[4,9] <= 5
 (20)[12,13]: - 3 x[12,1] - 2 x[12,2] - 2 x[12,3] - 5 x[12,4] + 3 x[13,1]
   + 2 x[13,2] + 2 x[13,3] + 5 x[13,4] + 5 a[12,13] <= 5
 (20)[21,22]: - 3 x[21,1] - 2 x[21,2] - 2 x[21,3] - 5 x[21,4] + 3 x[22,1]
   + 2 x[22,2] + 2 x[22,3] + 5 x[22,4] + 5 a[21,22] <= 5
 (20)[22,23]: - 3 x[22,1] - 2 x[22,2] - 2 x[22,3] - 5 x[22,4] + 3 x[23,1]
   + 2 x[23,2] + 2 x[23,3] + 5 x[23,4] + 5 a[22,23] <= 5
 (20)[5,10]: - 3 x[5,1] - 2 x[5,2] - 2 x[5,3] - 5 x[5,4] + 3 x[10,1]
   + 2 x[10,2] + 2 x[10,3] + 5 x[10,4] + 5 a[5,10] <= 5
 (20)[8,9]: - 3 x[8,1] - 2 x[8,2] - 2 x[8,3] - 5 x[8,4] + 3 x[9,1]
   + 2 x[9,2] + 2 x[9,3] + 5 x[9,4] + 5 a[8,9] <= 5
 (20)[14,19]: - 3 x[14,1] - 2 x[14,2] - 2 x[14,3] - 5 x[14,4] + 3 x[19,1]
   + 2 x[19,2] + 2 x[19,3] + 5 x[19,4] + 5 a[14,19] <= 5
 (20)[9,14]: - 3 x[9,1] - 2 x[9,2] - 2 x[9,3] - 5 x[9,4] + 3 x[14,1]
   + 2 x[14,2] + 2 x[14,3] + 5 x[14,4] + 5 a[9,14] <= 5
 (20)[1,6]: - 3 x[1,1] - 2 x[1,2] - 2 x[1,3] - 5 x[1,4] + 3 x[6,1]
   + 2 x[6,2] + 2 x[6,3] + 5 x[6,4] + 5 a[1,6] <= 5
 (20)[17,18]: - 3 x[17,1] - 2 x[17,2] - 2 x[17,3] - 5 x[17,4] + 3 x[18,1]
   + 2 x[18,2] + 2 x[18,3] + 5 x[18,4] + 5 a[17,18] <= 5
 (20)[10,25]: - 3 x[10,1] - 2 x[10,2] - 2 x[10,3] - 5 x[10,4] + 5 a[10,25]
   <= 5
 (20)[10,15]: - 3 x[10,1] - 2 x[10,2] - 2 x[10,3] - 5 x[10,4] + 3 x[15,1]
   + 2 x[15,2] + 2 x[15,3] + 5 x[15,4] + 5 a[10,15] <= 5
 (20)[13,14]: - 3 x[13,1] - 2 x[13,2] - 2 x[13,3] - 5 x[13,4] + 3 x[14,1]
   + 2 x[14,2] + 2 x[14,3] + 5 x[14,4] + 5 a[13,14] <= 5
 (20)[19,24]: - 3 x[19,1] - 2 x[19,2] - 2 x[19,3] - 5 x[19,4] + 3 x[24,1]
   + 2 x[24,2] + 2 x[24,3] + 5 x[24,4] + 5 a[19,24] <= 5
 (20)[6,11]: - 3 x[6,1] - 2 x[6,2] - 2 x[6,3] - 5 x[6,4] + 3 x[11,1]
   + 2 x[11,2] + 2 x[11,3] + 5 x[11,4] + 5 a[6,11] <= 5
 (20)[18,19]: - 3 x[18,1] - 2 x[18,2] - 2 x[18,3] - 5 x[18,4] + 3 x[19,1]
   + 2 x[19,2] + 2 x[19,3] + 5 x[19,4] + 5 a[18,19] <= 5
 (20)[15,20]: - 3 x[15,1] - 2 x[15,2] - 2 x[15,3] - 5 x[15,4] + 3 x[20,1]
   + 2 x[20,2] + 2 x[20,3] + 5 x[20,4] + 5 a[15,20] <= 5
 (20)[5,6]: - 3 x[5,1] - 2 x[5,2] - 2 x[5,3] - 5 x[5,4] + 3 x[6,1]
   + 2 x[6,2] + 2 x[6,3] + 5 x[6,4] + 5 a[5,6] <= 5
 (20)[23,24]: - 3 x[23,1] - 2 x[23,2] - 2 x[23,3] - 5 x[23,4] + 3 x[24,1]
   + 2 x[24,2] + 2 x[24,3] + 5 x[24,4] + 5 a[23,24] <= 5
 (20)[1,2]: - 3 x[1,1] - 2 x[1,2] - 2 x[1,3] - 5 x[1,4] + 3 x[2,1]
   + 2 x[2,2] + 2 x[2,3] + 5 x[2,4] + 5 a[1,2] <= 5
 (20)[10,11]: - 3 x[10,1] - 2 x[10,2] - 2 x[10,3] - 5 x[10,4] + 3 x[11,1]
   + 2 x[11,2] + 2 x[11,3] + 5 x[11,4] + 5 a[10,11] <= 5
 (20)[2,7]: - 3 x[2,1] - 2 x[2,2] - 2 x[2,3] - 5 x[2,4] + 3 x[7,1]
   + 2 x[7,2] + 2 x[7,3] + 5 x[7,4] + 5 a[2,7] <= 5
 (20)[11,16]: - 3 x[11,1] - 2 x[11,2] - 2 x[11,3] - 5 x[11,4] + 3 x[16,1]
   + 2 x[16,2] + 2 x[16,3] + 5 x[16,4] + 5 a[11,16] <= 5
 (20)[6,7]: - 3 x[6,1] - 2 x[6,2] - 2 x[6,3] - 5 x[6,4] + 3 x[7,1]
   + 2 x[7,2] + 2 x[7,3] + 5 x[7,4] + 5 a[6,7] <= 5
 (20)[15,16]: - 3 x[15,1] - 2 x[15,2] - 2 x[15,3] - 5 x[15,4] + 3 x[16,1]
   + 2 x[16,2] + 2 x[16,3] + 5 x[16,4] + 5 a[15,16] <= 5
 (20)[7,12]: - 3 x[7,1] - 2 x[7,2] - 2 x[7,3] - 5 x[7,4] + 3 x[12,1]
   + 2 x[12,2] + 2 x[12,3] + 5 x[12,4] + 5 a[7,12] <= 5
 (20)[16,21]: - 3 x[16,1] - 2 x[16,2] - 2 x[16,3] - 5 x[16,4] + 3 x[21,1]
   + 2 x[21,2] + 2 x[21,3] + 5 x[21,4] + 5 a[16,21] <= 5
 (20)[20,21]: - 3 x[20,1] - 2 x[20,2] - 2 x[20,3] - 5 x[20,4] + 3 x[21,1]
   + 2 x[21,2] + 2 x[21,3] + 5 x[21,4] + 5 a[20,21] <= 5
 (20)[3,8]: - 3 x[3,1] - 2 x[3,2] - 2 x[3,3] - 5 x[3,4] + 3 x[8,1]
   + 2 x[8,2] + 2 x[8,3] + 5 x[8,4] + 5 a[3,8] <= 5
 (20)[12,17]: - 3 x[12,1] - 2 x[12,2] - 2 x[12,3] - 5 x[12,4] + 3 x[17,1]
   + 2 x[17,2] + 2 x[17,3] + 5 x[17,4] + 5 a[12,17] <= 5
 (20)[2,3]: - 3 x[2,1] - 2 x[2,2] - 2 x[2,3] - 5 x[2,4] + 3 x[3,1]
   + 2 x[3,2] + 2 x[3,3] + 5 x[3,4] + 5 a[2,3] <= 5
 (20)[11,12]: - 3 x[11,1] - 2 x[11,2] - 2 x[11,3] - 5 x[11,4] + 3 x[12,1]
   + 2 x[12,2] + 2 x[12,3] + 5 x[12,4] + 5 a[11,12] <= 5
 (20)[8,13]: - 3 x[8,1] - 2 x[8,2] - 2 x[8,3] - 5 x[8,4] + 3 x[13,1]
   + 2 x[13,2] + 2 x[13,3] + 5 x[13,4] + 5 a[8,13] <= 5
 (20)[17,22]: - 3 x[17,1] - 2 x[17,2] - 2 x[17,3] - 5 x[17,4] + 3 x[22,1]
   + 2 x[22,2] + 2 x[22,3] + 5 x[22,4] + 5 a[17,22] <= 5
 (20)[7,8]: - 3 x[7,1] - 2 x[7,2] - 2 x[7,3] - 5 x[7,4] + 3 x[8,1]
   + 2 x[8,2] + 2 x[8,3] + 5 x[8,4] + 5 a[7,8] <= 5
 (20)[13,18]: - 3 x[13,1] - 2 x[13,2] - 2 x[13,3] - 5 x[13,4] + 3 x[18,1]
   + 2 x[18,2] + 2 x[18,3] + 5 x[18,4] + 5 a[13,18] <= 5
 (20)[16,17]: - 3 x[16,1] - 2 x[16,2] - 2 x[16,3] - 5 x[16,4] + 3 x[17,1]
   + 2 x[17,2] + 2 x[17,3] + 5 x[17,4] + 5 a[16,17] <= 5
 (21)[18,17]: 9 x[17,1] + 6 x[17,2] + 8 x[17,3] + 7 x[17,4] - 9 x[18,1]
   - 6 x[18,2] - 8 x[18,3] - 7 x[18,4] + 5 b[18,17] <= 5
 (21)[12,7]: 9 x[7,1] + 6 x[7,2] + 8 x[7,3] + 7 x[7,4] - 9 x[12,1]
   - 6 x[12,2] - 8 x[12,3] - 7 x[12,4] + 5 b[12,7] <= 5
 (21)[21,16]: 9 x[16,1] + 6 x[16,2] + 8 x[16,3] + 7 x[16,4] - 9 x[21,1]
   - 6 x[21,2] - 8 x[21,3] - 7 x[21,4] + 5 b[21,16] <= 5
 (21)[4,3]: 9 x[3,1] + 6 x[3,2] + 8 x[3,3] + 7 x[3,4] - 9 x[4,1] - 6 x[4,2]
   - 8 x[4,3] - 7 x[4,4] + 5 b[4,3] <= 5
 (21)[22,17]: 9 x[17,1] + 6 x[17,2] + 8 x[17,3] + 7 x[17,4] - 9 x[22,1]
   - 6 x[22,2] - 8 x[22,3] - 7 x[22,4] + 5 b[22,17] <= 5
 (21)[14,13]: 9 x[13,1] + 6 x[13,2] + 8 x[13,3] + 7 x[13,4] - 9 x[14,1]
   - 6 x[14,2] - 8 x[14,3] - 7 x[14,4] + 5 b[14,13] <= 5
 (21)[23,22]: 9 x[22,1] + 6 x[22,2] + 8 x[22,3] + 7 x[22,4] - 9 x[23,1]
   - 6 x[23,2] - 8 x[23,3] - 7 x[23,4] + 5 b[23,22] <= 5
 (21)[8,3]: 9 x[3,1] + 6 x[3,2] + 8 x[3,3] + 7 x[3,4] - 9 x[8,1] - 6 x[8,2]
   - 8 x[8,3] - 7 x[8,4] + 5 b[8,3] <= 5
 (21)[17,12]: 9 x[12,1] + 6 x[12,2] + 8 x[12,3] + 7 x[12,4] - 9 x[17,1]
   - 6 x[17,2] - 8 x[17,3] - 7 x[17,4] + 5 b[17,12] <= 5
 (21)[9,8]: 9 x[8,1] + 6 x[8,2] + 8 x[8,3] + 7 x[8,4] - 9 x[9,1] - 6 x[9,2]
   - 8 x[9,3] - 7 x[9,4] + 5 b[9,8] <= 5
 (21)[19,18]: 9 x[18,1] + 6 x[18,2] + 8 x[18,3] + 7 x[18,4] - 9 x[19,1]
   - 6 x[19,2] - 8 x[19,3] - 7 x[19,4] + 5 b[19,18] <= 5
 (21)[25,10]: 9 x[10,1] + 6 x[10,2] + 8 x[10,3] + 7 x[10,4] + 5 b[25,10]
   <= 15
 (21)[13,8]: 9 x[8,1] + 6 x[8,2] + 8 x[8,3] + 7 x[8,4] - 9 x[13,1]
   - 6 x[13,2] - 8 x[13,3] - 7 x[13,4] + 5 b[13,8] <= 5
 (21)[6,5]: 9 x[5,1] + 6 x[5,2] + 8 x[5,3] + 7 x[5,4] - 9 x[6,1] - 6 x[6,2]
   - 8 x[6,3] - 7 x[6,4] + 5 b[6,5] <= 5
 (21)[24,23]: 9 x[23,1] + 6 x[23,2] + 8 x[23,3] + 7 x[23,4] - 9 x[24,1]
   - 6 x[24,2] - 8 x[24,3] - 7 x[24,4] + 5 b[24,23] <= 5
 (21)[18,13]: 9 x[13,1] + 6 x[13,2] + 8 x[13,3] + 7 x[13,4] - 9 x[18,1]
   - 6 x[18,2] - 8 x[18,3] - 7 x[18,4] + 5 b[18,13] <= 5
 (21)[14,9]: 9 x[9,1] + 6 x[9,2] + 8 x[9,3] + 7 x[9,4] - 9 x[14,1]
   - 6 x[14,2] - 8 x[14,3] - 7 x[14,4] + 5 b[14,9] <= 5
 (21)[23,18]: 9 x[18,1] + 6 x[18,2] + 8 x[18,3] + 7 x[18,4] - 9 x[23,1]
   - 6 x[23,2] - 8 x[23,3] - 7 x[23,4] + 5 b[23,18] <= 5
 (21)[9,4]: 9 x[4,1] + 6 x[4,2] + 8 x[4,3] + 7 x[4,4] - 9 x[9,1] - 6 x[9,2]
   - 8 x[9,3] - 7 x[9,4] + 5 b[9,4] <= 5
 (21)[10,5]: 9 x[5,1] + 6 x[5,2] + 8 x[5,3] + 7 x[5,4] - 9 x[10,1]
   - 6 x[10,2] - 8 x[10,3] - 7 x[10,4] + 5 b[10,5] <= 5
 (21)[19,14]: 9 x[14,1] + 6 x[14,2] + 8 x[14,3] + 7 x[14,4] - 9 x[19,1]
   - 6 x[19,2] - 8 x[19,3] - 7 x[19,4] + 5 b[19,14] <= 5
 (21)[2,1]: 9 x[1,1] + 6 x[1,2] + 8 x[1,3] + 7 x[1,4] - 9 x[2,1] - 6 x[2,2]
   - 8 x[2,3] - 7 x[2,4] + 5 b[2,1] <= 5
 (21)[11,10]: 9 x[10,1] + 6 x[10,2] + 8 x[10,3] + 7 x[10,4] - 9 x[11,1]
   - 6 x[11,2] - 8 x[11,3] - 7 x[11,4] + 5 b[11,10] <= 5
 (21)[6,1]: 9 x[1,1] + 6 x[1,2] + 8 x[1,3] + 7 x[1,4] - 9 x[6,1] - 6 x[6,2]
   - 8 x[6,3] - 7 x[6,4] + 5 b[6,1] <= 5
 (21)[15,10]: 9 x[10,1] + 6 x[10,2] + 8 x[10,3] + 7 x[10,4] - 9 x[15,1]
   - 6 x[15,2] - 8 x[15,3] - 7 x[15,4] + 5 b[15,10] <= 5
 (21)[24,19]: 9 x[19,1] + 6 x[19,2] + 8 x[19,3] + 7 x[19,4] - 9 x[24,1]
   - 6 x[24,2] - 8 x[24,3] - 7 x[24,4] + 5 b[24,19] <= 5
 (21)[7,6]: 9 x[6,1] + 6 x[6,2] + 8 x[6,3] + 7 x[6,4] - 9 x[7,1] - 6 x[7,2]
   - 8 x[7,3] - 7 x[7,4] + 5 b[7,6] <= 5
 (21)[16,15]: 9 x[15,1] + 6 x[15,2] + 8 x[15,3] + 7 x[15,4] - 9 x[16,1]
   - 6 x[16,2] - 8 x[16,3] - 7 x[16,4] + 5 b[16,15] <= 5
 (21)[12,11]: 9 x[11,1] + 6 x[11,2] + 8 x[11,3] + 7 x[11,4] - 9 x[12,1]
   - 6 x[12,2] - 8 x[12,3] - 7 x[12,4] + 5 b[12,11] <= 5
 (21)[3,2]: 9 x[2,1] + 6 x[2,2] + 8 x[2,3] + 7 x[2,4] - 9 x[3,1] - 6 x[3,2]
   - 8 x[3,3] - 7 x[3,4] + 5 b[3,2] <= 5
 (21)[20,15]: 9 x[15,1] + 6 x[15,2] + 8 x[15,3] + 7 x[15,4] - 9 x[20,1]
   - 6 x[20,2] - 8 x[20,3] - 7 x[20,4] + 5 b[20,15] <= 5
 (21)[21,20]: 9 x[20,1] + 6 x[20,2] + 8 x[20,3] + 7 x[20,4] - 9 x[21,1]
   - 6 x[21,2] - 8 x[21,3] - 7 x[21,4] + 5 b[21,20] <= 5
 (21)[22,21]: 9 x[21,1] + 6 x[21,2] + 8 x[21,3] + 7 x[21,4] - 9 x[22,1]
   - 6 x[22,2] - 8 x[22,3] - 7 x[22,4] + 5 b[22,21] <= 5
 (21)[8,7]: 9 x[7,1] + 6 x[7,2] + 8 x[7,3] + 7 x[7,4] - 9 x[8,1] - 6 x[8,2]
   - 8 x[8,3] - 7 x[8,4] + 5 b[8,7] <= 5
 (21)[17,16]: 9 x[16,1] + 6 x[16,2] + 8 x[16,3] + 7 x[16,4] - 9 x[17,1]
   - 6 x[17,2] - 8 x[17,3] - 7 x[17,4] + 5 b[17,16] <= 5
 (21)[11,6]: 9 x[6,1] + 6 x[6,2] + 8 x[6,3] + 7 x[6,4] - 9 x[11,1]
   - 6 x[11,2] - 8 x[11,3] - 7 x[11,4] + 5 b[11,6] <= 5
 (21)[13,12]: 9 x[12,1] + 6 x[12,2] + 8 x[12,3] + 7 x[12,4] - 9 x[13,1]
   - 6 x[13,2] - 8 x[13,3] - 7 x[13,4] + 5 b[13,12] <= 5
 (21)[7,2]: 9 x[2,1] + 6 x[2,2] + 8 x[2,3] + 7 x[2,4] - 9 x[7,1] - 6 x[7,2]
   - 8 x[7,3] - 7 x[7,4] + 5 b[7,2] <= 5
 (21)[16,11]: 9 x[11,1] + 6 x[11,2] + 8 x[11,3] + 7 x[11,4] - 9 x[16,1]
   - 6 x[16,2] - 8 x[16,3] - 7 x[16,4] + 5 b[16,11] <= 5
 (22)[1]: - 5 x[1,1] - 5 x[1,2] - 5 x[1,3] - 5 x[1,4] - u[1,6] + u[0,1]
   - u[1,2] = 0
 (22)[2]: - 5 x[2,1] - 5 x[2,2] - 5 x[2,3] - 5 x[2,4] + u[1,2] - u[2,7]
   - u[2,3] = 0
 (22)[3]: - 5 x[3,1] - 5 x[3,2] - 5 x[3,3] - 5 x[3,4] - u[3,4] - u[3,8]
   + u[2,3] = 0
 (22)[4]: - 5 x[4,1] - 5 x[4,2] - 5 x[4,3] - 5 x[4,4] + u[3,4] - u[4,9]
   = 0
 (22)[5]: - 5 x[5,1] - 5 x[5,2] - 5 x[5,3] - 5 x[5,4] - u[5,10] + u[0,5]
   - u[5,6] = 0
 (22)[6]: - 5 x[6,1] - 5 x[6,2] - 5 x[6,3] - 5 x[6,4] + u[1,6] - u[6,11]
   + u[5,6] - u[6,7] = 0
 (22)[7]: - 5 x[7,1] - 5 x[7,2] - 5 x[7,3] - 5 x[7,4] + u[2,7] + u[6,7]
   - u[7,12] - u[7,8] = 0
 (22)[8]: - 5 x[8,1] - 5 x[8,2] - 5 x[8,3] - 5 x[8,4] - u[8,9] + u[3,8]
   - u[8,13] + u[7,8] = 0
 (22)[9]: - 5 x[9,1] - 5 x[9,2] - 5 x[9,3] - 5 x[9,4] + u[4,9] + u[8,9]
   - u[9,14] = 0
 (22)[10]: - 5 x[10,1] - 5 x[10,2] - 5 x[10,3] - 5 x[10,4] + u[5,10]
   - u[10,25] - u[10,15] - u[10,11] = 0
 (22)[11]: - 5 x[11,1] - 5 x[11,2] - 5 x[11,3] - 5 x[11,4] + u[6,11]
   + u[10,11] - u[11,16] - u[11,12] = 0
 (22)[12]: - 5 x[12,1] - 5 x[12,2] - 5 x[12,3] - 5 x[12,4] - u[12,13]
   + u[7,12] - u[12,17] + u[11,12] = 0
 (22)[13]: - 5 x[13,1] - 5 x[13,2] - 5 x[13,3] - 5 x[13,4] + u[12,13]
   - u[13,14] + u[8,13] - u[13,18] = 0
 (22)[14]: - 5 x[14,1] - 5 x[14,2] - 5 x[14,3] - 5 x[14,4] - u[14,19]
   + u[9,14] + u[13,14] = 0
 (22)[15]: - 5 x[15,1] - 5 x[15,2] - 5 x[15,3] - 5 x[15,4] + u[10,15]
   - u[15,20] - u[15,16] = 0
 (22)[16]: - 5 x[16,1] - 5 x[16,2] - 5 x[16,3] - 5 x[16,4] + u[11,16]
   + u[15,16] - u[16,21] - u[16,17] = 0
 (22)[17]: - 5 x[17,1] - 5 x[17,2] - 5 x[17,3] - 5 x[17,4] - u[17,18]
   + u[12,17] - u[17,22] + u[16,17] = 0
 (22)[18]: - 5 x[18,1] - 5 x[18,2] - 5 x[18,3] - 5 x[18,4] - u[18,23]
   + u[17,18] - u[18,19] + u[13,18] = 0
 (22)[19]: - 5 x[19,1] - 5 x[19,2] - 5 x[19,3] - 5 x[19,4] + u[14,19]
   - u[19,24] + u[18,19] = 0
 (22)[20]: - 5 x[20,1] - 5 x[20,2] - 5 x[20,3] - 5 x[20,4] + u[15,20]
   - u[20,21] = 0
 (22)[21]: - 5 x[21,1] - 5 x[21,2] - 5 x[21,3] - 5 x[21,4] - u[21,22]
   + u[16,21] + u[20,21] = 0
 (22)[22]: - 5 x[22,1] - 5 x[22,2] - 5 x[22,3] - 5 x[22,4] + u[21,22]
   - u[22,23] + u[17,22] = 0
 (22)[23]: - 5 x[23,1] - 5 x[23,2] - 5 x[23,3] - 5 x[23,4] + u[18,23]
   + u[22,23] - u[23,24] = 0
 (22)[24]: - 5 x[24,1] - 5 x[24,2] - 5 x[24,3] - 5 x[24,4] + u[19,24]
   + u[23,24] = 0
 (22)[25]: u[10,25] = 1
 (23): u[0,5] + u[0,1] = 121
 (24)[1]: - 5 x[1,1] - 5 x[1,2] - 5 x[1,3] - 5 x[1,4] + v[1,0] - v[2,1]
   - v[6,1] = 0
 (24)[2]: - 5 x[2,1] - 5 x[2,2] - 5 x[2,3] - 5 x[2,4] + v[2,1] - v[3,2]
   - v[7,2] = 0
 (24)[3]: - 5 x[3,1] - 5 x[3,2] - 5 x[3,3] - 5 x[3,4] - v[4,3] - v[8,3]
   + v[3,2] = 0
 (24)[4]: - 5 x[4,1] - 5 x[4,2] - 5 x[4,3] - 5 x[4,4] + v[4,3] - v[9,4]
   = 0
 (24)[5]: - 5 x[5,1] - 5 x[5,2] - 5 x[5,3] - 5 x[5,4] - v[6,5] + v[5,0]
   - v[10,5] = 0
 (24)[6]: - 5 x[6,1] - 5 x[6,2] - 5 x[6,3] - 5 x[6,4] + v[6,5] + v[6,1]
   - v[7,6] - v[11,6] = 0
 (24)[7]: - 5 x[7,1] - 5 x[7,2] - 5 x[7,3] - 5 x[7,4] - v[12,7] + v[7,6]
   - v[8,7] + v[7,2] = 0
 (24)[8]: - 5 x[8,1] - 5 x[8,2] - 5 x[8,3] - 5 x[8,4] + v[8,3] - v[9,8]
   - v[13,8] + v[8,7] = 0
 (24)[9]: - 5 x[9,1] - 5 x[9,2] - 5 x[9,3] - 5 x[9,4] + v[9,8] - v[14,9]
   + v[9,4] = 0
 (24)[10]: - 5 x[10,1] - 5 x[10,2] - 5 x[10,3] - 5 x[10,4] - v[25,10]
   + v[10,5] - v[11,10] - v[15,10] = 0
 (24)[11]: - 5 x[11,1] - 5 x[11,2] - 5 x[11,3] - 5 x[11,4] + v[11,10]
   - v[12,11] + v[11,6] - v[16,11] = 0
 (24)[12]: - 5 x[12,1] - 5 x[12,2] - 5 x[12,3] - 5 x[12,4] + v[12,7]
   - v[17,12] + v[12,11] - v[13,12] = 0
 (24)[13]: - 5 x[13,1] - 5 x[13,2] - 5 x[13,3] - 5 x[13,4] - v[14,13]
   + v[13,8] - v[18,13] + v[13,12] = 0
 (24)[14]: - 5 x[14,1] - 5 x[14,2] - 5 x[14,3] - 5 x[14,4] + v[14,13]
   + v[14,9] - v[19,14] = 0
 (24)[15]: - 5 x[15,1] - 5 x[15,2] - 5 x[15,3] - 5 x[15,4] + v[15,10]
   - v[16,15] - v[20,15] = 0
 (24)[16]: - 5 x[16,1] - 5 x[16,2] - 5 x[16,3] - 5 x[16,4] - v[21,16]
   + v[16,15] - v[17,16] + v[16,11] = 0
 (24)[17]: - 5 x[17,1] - 5 x[17,2] - 5 x[17,3] - 5 x[17,4] - v[18,17]
   - v[22,17] + v[17,12] + v[17,16] = 0
 (24)[18]: - 5 x[18,1] - 5 x[18,2] - 5 x[18,3] - 5 x[18,4] + v[18,17]
   - v[19,18] + v[18,13] - v[23,18] = 0
 (24)[19]: - 5 x[19,1] - 5 x[19,2] - 5 x[19,3] - 5 x[19,4] + v[19,18]
   + v[19,14] - v[24,19] = 0
 (24)[20]: - 5 x[20,1] - 5 x[20,2] - 5 x[20,3] - 5 x[20,4] + v[20,15]
   - v[21,20] = 0
 (24)[21]: - 5 x[21,1] - 5 x[21,2] - 5 x[21,3] - 5 x[21,4] + v[21,16]
   + v[21,20] - v[22,21] = 0
 (24)[22]: - 5 x[22,1] - 5 x[22,2] - 5 x[22,3] - 5 x[22,4] + v[22,17]
   - v[23,22] + v[22,21] = 0
 (24)[23]: - 5 x[23,1] - 5 x[23,2] - 5 x[23,3] - 5 x[23,4] + v[23,22]
   - v[24,23] + v[23,18] = 0
 (24)[24]: - 5 x[24,1] - 5 x[24,2] - 5 x[24,3] - 5 x[24,4] + v[24,23]
   + v[24,19] = 0
 (24)[25]: v[25,10] = 1
 (25): v[1,0] + v[5,0] = 121
 (26b)[18,23]: - 141 a[18,23] + u[18,23] <= 0
 (26b)[3,4]: - 141 a[3,4] + u[3,4] <= 0
 (26b)[4,9]: - 141 a[4,9] + u[4,9] <= 0
 (26b)[12,13]: - 141 a[12,13] + u[12,13] <= 0
 (26b)[21,22]: - 141 a[21,22] + u[21,22] <= 0
 (26b)[22,23]: - 141 a[22,23] + u[22,23] <= 0
 (26b)[5,10]: - 141 a[5,10] + u[5,10] <= 0
 (26b)[8,9]: - 141 a[8,9] + u[8,9] <= 0
 (26b)[14,19]: - 141 a[14,19] + u[14,19] <= 0
 (26b)[0,5]: - 141 a[0,5] + u[0,5] <= 0
 (26b)[9,14]: - 141 a[9,14] + u[9,14] <= 0
 (26b)[1,6]: - 141 a[1,6] + u[1,6] <= 0
 (26b)[17,18]: - 141 a[17,18] + u[17,18] <= 0
 (26b)[10,25]: - 141 a[10,25] + u[10,25] <= 0
 (26b)[10,15]: - 141 a[10,15] + u[10,15] <= 0
 (26b)[13,14]: - 141 a[13,14] + u[13,14] <= 0
 (26b)[19,24]: - 141 a[19,24] + u[19,24] <= 0
 (26b)[6,11]: - 141 a[6,11] + u[6,11] <= 0
 (26b)[18,19]: - 141 a[18,19] + u[18,19] <= 0
 (26b)[15,20]: - 141 a[15,20] + u[15,20] <= 0
 (26b)[5,6]: - 141 a[5,6] + u[5,6] <= 0
 (26b)[23,24]: - 141 a[23,24] + u[23,24] <= 0
 (26b)[0,1]: - 141 a[0,1] + u[0,1] <= 0
 (26b)[1,2]: - 141 a[1,2] + u[1,2] <= 0
 (26b)[10,11]: - 141 a[10,11] + u[10,11] <= 0
 (26b)[2,7]: - 141 a[2,7] + u[2,7] <= 0
 (26b)[11,16]: - 141 a[11,16] + u[11,16] <= 0
 (26b)[6,7]: - 141 a[6,7] + u[6,7] <= 0
 (26b)[15,16]: - 141 a[15,16] + u[15,16] <= 0
 (26b)[7,12]: - 141 a[7,12] + u[7,12] <= 0
 (26b)[16,21]: - 141 a[16,21] + u[16,21] <= 0
 (26b)[20,21]: - 141 a[20,21] + u[20,21] <= 0
 (26b)[3,8]: - 141 a[3,8] + u[3,8] <= 0
 (26b)[12,17]: - 141 a[12,17] + u[12,17] <= 0
 (26b)[2,3]: - 141 a[2,3] + u[2,3] <= 0
 (26b)[11,12]: - 141 a[11,12] + u[11,12] <= 0
 (26b)[8,13]: - 141 a[8,13] + u[8,13] <= 0
 (26b)[17,22]: - 141 a[17,22] + u[17,22] <= 0
 (26b)[7,8]: - 141 a[7,8] + u[7,8] <= 0
 (26b)[13,18]: - 141 a[13,18] + u[13,18] <= 0
 (26b)[16,17]: - 141 a[16,17] + u[16,17] <= 0
 (27b)[18,17]: - 141 b[18,17] + v[18,17] <= 0
 (27b)[12,7]: - 141 b[12,7] + v[12,7] <= 0
 (27b)[21,16]: - 141 b[21,16] + v[21,16] <= 0
 (27b)[4,3]: - 141 b[4,3] + v[4,3] <= 0
 (27b)[22,17]: - 141 b[22,17] + v[22,17] <= 0
 (27b)[14,13]: - 141 b[14,13] + v[14,13] <= 0
 (27b)[23,22]: - 141 b[23,22] + v[23,22] <= 0
 (27b)[8,3]: - 141 b[8,3] + v[8,3] <= 0
 (27b)[17,12]: - 141 b[17,12] + v[17,12] <= 0
 (27b)[9,8]: - 141 b[9,8] + v[9,8] <= 0
 (27b)[1,0]: - 141 b[1,0] + v[1,0] <= 0
 (27b)[19,18]: - 141 b[19,18] + v[19,18] <= 0
 (27b)[25,10]: - 141 b[25,10] + v[25,10] <= 0
 (27b)[13,8]: - 141 b[13,8] + v[13,8] <= 0
 (27b)[6,5]: - 141 b[6,5] + v[6,5] <= 0
 (27b)[24,23]: - 141 b[24,23] + v[24,23] <= 0
 (27b)[18,13]: - 141 b[18,13] + v[18,13] <= 0
 (27b)[5,0]: - 141 b[5,0] + v[5,0] <= 0
 (27b)[14,9]: - 141 b[14,9] + v[14,9] <= 0
 (27b)[23,18]: - 141 b[23,18] + v[23,18] <= 0
 (27b)[9,4]: - 141 b[9,4] + v[9,4] <= 0
 (27b)[10,5]: - 141 b[10,5] + v[10,5] <= 0
 (27b)[19,14]: - 141 b[19,14] + v[19,14] <= 0
 (27b)[2,1]: - 141 b[2,1] + v[2,1] <= 0
 (27b)[11,10]: - 141 b[11,10] + v[11,10] <= 0
 (27b)[6,1]: - 141 b[6,1] + v[6,1] <= 0
 (27b)[15,10]: - 141 b[15,10] + v[15,10] <= 0
 (27b)[24,19]: - 141 b[24,19] + v[24,19] <= 0
 (27b)[7,6]: - 141 b[7,6] + v[7,6] <= 0
 (27b)[16,15]: - 141 b[16,15] + v[16,15] <= 0
 (27b)[12,11]: - 141 b[12,11] + v[12,11] <= 0
 (27b)[3,2]: - 141 b[3,2] + v[3,2] <= 0
 (27b)[20,15]: - 141 b[20,15] + v[20,15] <= 0
 (27b)[21,20]: - 141 b[21,20] + v[21,20] <= 0
 (27b)[22,21]: - 141 b[22,21] + v[22,21] <= 0
 (27b)[8,7]: - 141 b[8,7] + v[8,7] <= 0
 (27b)[17,16]: - 141 b[17,16] + v[17,16] <= 0
 (27b)[11,6]: - 141 b[11,6] + v[11,6] <= 0
 (27b)[13,12]: - 141 b[13,12] + v[13,12] <= 0
 (27b)[7,2]: - 141 b[7,2] + v[7,2] <= 0
 (27b)[16,11]: - 141 b[16,11] + v[16,11] <= 0
 (28a)[1]: a[0,1] = 1
 (28a)[2]: a[1,2] = 1
 (28a)[3]: a[2,3] = 1
 (28a)[4]: a[3,4] = 1
 (28a)[5]: a[0,5] = 1
 (28a)[6]: a[1,6] + a[5,6] = 1
 (28a)[7]: a[2,7] + a[6,7] = 1
 (28a)[8]: a[3,8] + a[7,8] = 1
 (28a)[9]: a[4,9] + a[8,9] = 1
 (28a)[10]: a[5,10] = 1
 (28a)[11]: a[6,11] + a[10,11] = 1
 (28a)[12]: a[7,12] + a[11,12] = 1
 (28a)[13]: a[12,13] + a[8,13] = 1
 (28a)[14]: a[9,14] + a[13,14] = 1
 (28a)[15]: a[10,15] = 1
 (28a)[16]: a[11,16] + a[15,16] = 1
 (28a)[17]: a[12,17] + a[16,17] = 1
 (28a)[18]: a[17,18] + a[13,18] = 1
 (28a)[19]: a[14,19] + a[18,19] = 1
 (28a)[20]: a[15,20] = 1
 (28a)[21]: a[16,21] + a[20,21] = 1
 (28a)[22]: a[21,22] + a[17,22] = 1
 (28a)[23]: a[18,23] + a[22,23] = 1
 (28a)[24]: a[19,24] + a[23,24] = 1
 (28a)[25]: a[10,25] = 1
 (28b)[1]: b[1,0] = 1
 (28b)[2]: b[2,1] = 1
 (28b)[3]: b[3,2] = 1
 (28b)[4]: b[4,3] = 1
 (28b)[5]: b[5,0] = 1
 (28b)[6]: b[6,5] + b[6,1] = 1
 (28b)[7]: b[7,6] + b[7,2] = 1
 (28b)[8]: b[8,3] + b[8,7] = 1
 (28b)[9]: b[9,8] + b[9,4] = 1
 (28b)[10]: b[10,5] = 1
 (28b)[11]: b[11,10] + b[11,6] = 1
 (28b)[12]: b[12,7] + b[12,11] = 1
 (28b)[13]: b[13,8] + b[13,12] = 1
 (28b)[14]: b[14,13] + b[14,9] = 1
 (28b)[15]: b[15,10] = 1
 (28b)[16]: b[16,15] + b[16,11] = 1
 (28b)[17]: b[17,12] + b[17,16] = 1
 (28b)[18]: b[18,17] + b[18,13] = 1
 (28b)[19]: b[19,18] + b[19,14] = 1
 (28b)[20]: b[20,15] = 1
 (28b)[21]: b[21,16] + b[21,20] = 1
 (28b)[22]: b[22,17] + b[22,21] = 1
 (28b)[23]: b[23,22] + b[23,18] = 1
 (28b)[24]: b[24,23] + b[24,19] = 1
 (28b)[25]: b[25,10] = 1
Bounds
Binaries
 x[1,1] x[1,2] x[1,3] x[1,4] x[2,1] x[2,2] x[2,3] x[2,4] x[3,1] x[3,2]
 x[3,3] x[3,4] x[4,1] x[4,2] x[4,3] x[4,4] x[5,1] x[5,2] x[5,3] x[5,4]
 x[6,1] x[6,2] x[6,3] x[6,4] x[7,1] x[7,2] x[7,3] x[7,4] x[8,1] x[8,2]
 x[8,3] x[8,4] x[9,1] x[9,2] x[9,3] x[9,4] x[10,1] x[10,2] x[10,3] x[10,4]
 x[11,1] x[11,2] x[11,3] x[11,4] x[12,1] x[12,2] x[12,3] x[12,4] x[13,1]
 x[13,2] x[13,3] x[13,4] x[14,1] x[14,2] x[14,3] x[14,4] x[15,1] x[15,2]
 x[15,3] x[15,4] x[16,1] x[16,2] x[16,3] x[16,4] x[17,1] x[17,2] x[17,3]
 x[17,4] x[18,1] x[18,2] x[18,3] x[18,4] x[19,1] x[19,2] x[19,3] x[19,4]
 x[20,1] x[20,2] x[20,3] x[20,4] x[21,1] x[21,2] x[21,3] x[21,4] x[22,1]
 x[22,2] x[22,3] x[22,4] x[23,1] x[23,2] x[23,3] x[23,4] x[24,1] x[24,2]
 x[24,3] x[24,4] a[18,23] a[3,4] a[4,9] a[12,13] a[21,22] a[22,23] a[5,10]
 a[8,9] a[14,19] a[0,5] a[9,14] a[1,6] a[17,18] a[10,25] a[10,15] a[13,14]
 a[19,24] a[6,11] a[18,19] a[15,20] a[5,6] a[23,24] a[0,1] a[1,2] a[10,11]
 a[2,7] a[11,16] a[6,7] a[15,16] a[7,12] a[16,21] a[20,21] a[3,8] a[12,17]
 a[2,3] a[11,12] a[8,13] a[17,22] a[7,8] a[13,18] a[16,17] b[18,17] b[12,7]
 b[21,16] b[4,3] b[22,17] b[14,13] b[23,22] b[8,3] b[17,12] b[9,8] b[1,0]
 b[19,18] b[25,10] b[13,8] b[6,5] b[24,23] b[18,13] b[5,0] b[14,9] b[23,18]
 b[9,4] b[10,5] b[19,14] b[2,1] b[11,10] b[6,1] b[15,10] b[24,19] b[7,6]
 b[16,15] b[12,11] b[3,2] b[20,15] b[21,20] b[22,21] b[8,7] b[17,16]
 b[11,6] b[13,12] b[7,2] b[16,11]
End
